data;

param w := 30;
param n := 20;
param min_h := 30;
param max_h := 46;

set BLOCKS := 1 2 3 4 5 6 7 8 9 10 11 12 13 14 15 16 17 18 19 20 ;

param:	width	height :=
	1	11	30
	2	3	25
	3	3	19
	4	3	16
	5	3	14
	6	3	13
	7	4	9
	8	3	11
	9	4	8
	10	3	10
	11	3	9
	12	4	6
	13	3	8
	14	3	7
	15	3	6
	16	4	4
	17	3	5
	18	4	3
	19	3	4
	20	3	3;